834366
4,155,210,144,143,25,21,90,95,165,100,183,115,160,106,195,178,191,36,33,204,74,214,77,54,129,80,39,168,26,101,61,86,34,107,93,49,150,27,88,8,67,222,175,16,46,224,47,110,133,18,226,124,45,213,163,153,64,199,197,9,200,109,13,164,193,96,119,7,14,29,219,12,43,63,136,59,184,188,15,2,207,158,22,68,225,176,50,97,41,159,112,72,208,125,69,85,118,192,194,135,180,187,123,130,147,60,181,24,122,84,166,78,94,83,28,173,75,56,10,142,196,138,57,58,220,51,79,131,171,167,203,92,212,44,211,229,103,1,114,148,81,157,179,120,76,221,40,127,105,140,218,65,23,189,98,201,104,215,99,52,91,174,53,17,55,172,205,217,113,190,151,121,137,198,30,177,162,126,146,206,38,66,48,117,70,139,134,82,156,73,31,62,71,0,6,209,182,19,116,35,161,228,132,111,154,42,5,202,37,223,32,128,152,216,20,3,227,87,108,89,169,141,145,11,186,102,185,170,149